(set-logic QF_S)
(declare-fun _var_0xINPUT_151399_() String)
(declare-fun __woorpje_diseq_pref0_() String)
(declare-fun __woorpje_diseq_suf_l0_() String)
(declare-fun __woorpje_diseq_suf_r0_() String)
(assert (=(str.++  "yoK0B2anOB" "")(str.++ _var_0xINPUT_151399_  "")) )
(check-sat)
